%NProcShared=12
%Chk=04_24_Homework43a.chk
#n RHF/6-31G(d,p) Opt

 04_24_Homework43a

0 1
C  
C   1 B1
C   1 B2 2 A2
C   3 B3 1 A3 2 D3
C   2 B4 1 A4 3 D4
C   5 B5 2 A5 1 D5
H   2 B6 1 A6 3 D6
H   5 B7 2 A7 1 D7
H   6 B8 5 A8 2 D8
H   4 B9 3 A9 1 D9
H   1 B10 2 A10 3 D10
C   3 B11 1 A11 2 D11
C   12 B12 3 A12 1 D12
C   13 B13 12 A13 3 D13
C   14 B14 13 A14 12 D14
C   12 B15 3 A15 1 D15
C   15 B16 14 A16 13 D16
H   13 B17 12 A17 3 D17
H   14 B18 13 A18 12 D18
H   15 B19 14 A19 13 D19
H   17 B20 15 A20 14 D20
H   16 B21 12 A21 3 D21
Variables:
B1        1.39763
B2        1.40497
A2      121.06745
B3        1.40497
A3      117.94534
D3      359.96822
B4        1.39248
A4      120.04199
D4        0.06371
B5        1.39248
A5      119.83574
D5      359.96858
B6        1.08679
A6      119.89908
D6      180.23100
B7        1.08673
A7      120.08213
D7      179.96858
B8        1.08679
A8      120.05872
D8      179.80102
B9        1.08819
A9      120.06052
D9      180.74723
B10        1.08819
A10      118.86754
D10      179.23010
B11        1.47236
A11      121.02733
D11      179.96822
B12        1.40497
A12      121.02733
D12       53.85566
B13        1.39763
A13      121.06746
D13      179.96822
B14        1.39248
A14      120.04198
D14        0.06371
B15        1.40497
A15      121.02733
D15      233.85566
B16        1.39248
A16      119.83574
D16      359.96858
B17        1.08819
A17      120.06052
D17        0.74723
B18        1.08679
A18      119.89909
D18      180.23100
B19        1.08673
A19      120.08213
D19      179.96858
B20        1.08679
A20      120.05872
D20      179.80102
B21        1.08819
A21      120.06052
D21        0.74723

