%NProcShared=12
%Chk=04_24_Homework41b_water_RHF6.chk
#n RHF/6-31G(d,p) Opt

 Water_PM3

0 1
O  
H   1 B1
H   1 B2 2 A2
Variables:
B1        0.99025
B2        0.99025
A2      104.50995

