%NProcShared=12
%Chk=04_24_Homework42a_Prod2.chk
#n RHF/6-31G(d,p) Opt

 Title

0 1
C  
C   1 B1
H   2 B2 1 A2
H   2 B3 1 A3 3 D3
H   2 B4 1 A4 3 D4
C   1 B5 2 A5 3 D5
H   6 B6 1 A6 2 D6
H   6 B7 1 A7 2 D7
H   6 B8 1 A8 2 D8
C   1 B9 2 A9 3 D9
H   1 B10 2 A10 3 D10
Cl  10 B11 1 A11 2 D11
H   10 B12 1 A12 2 D12
H   10 B13 1 A13 2 D13
Variables:
B1        1.53053
B2        1.09542
A2      111.30158
B3        1.09520
A3      110.80837
D3      239.74699
B4        1.09521
A4      110.83638
D4      120.26864
B5        1.53060
A5      109.62058
D5      297.87534
B6        1.09546
A6      110.67385
D6      304.74836
B7        1.09422
A7      111.57172
D7      185.41316
B8        1.09538
A8      111.21174
D8       64.66138
B9        1.53326
A9      109.63851
D9       61.63553
B10        1.09755
A10      107.76034
D10      180.19478
B11        1.78087
A11      112.14470
D11      172.68469
B12        1.09484
A12      111.31054
D12      293.29256
B13        1.09460
A13      110.72159
D13       53.54318

